(set-logic QF_S)
(declare-fun var0 () String)
(declare-fun var1 () Int)
(declare-fun var2 () Int)
(declare-fun var3 () String)
(declare-fun var4 () Int)
(declare-fun var5 () Int)
(declare-fun var6 () String)
(declare-fun var7 () String)
(assert (str.suffixof (str.substr var0 var1 var2) (str.substr var3 var4 var5)))
(assert (<= (str.indexof var6 var7 var4) (str.len (str.substr var3 var2 var1))))
(assert (not (<= var4 var5)))
(assert (> (str.to.int var6) (str.indexof (str.substr "$o).48" var1 var5) (str.substr "v,d" 156 var2) (str.indexof var6 var6 var2))))
(check-sat)